25° run output:
{
    "Function": "kroB400.tsp",
    "Problem dimension": [
        91,
        228,
        331,
        288,
        392,
        21,
        362,
        83,
        115,
        216,
        163,
        349,
        330,
        223,
        56,
        93,
        43,
        192,
        260,
        76,
        390,
        70,
        160,
        38,
        100,
        25,
        78,
        277,
        187,
        64,
        307,
        50,
        13,
        304,
        385,
        343,
        35,
        175,
        130,
        384,
        342,
        250,
        374,
        319,
        61,
        217,
        128,
        177,
        266,
        136,
        397,
        238,
        63,
        62,
        186,
        297,
        99,
        376,
        354,
        325,
        327,
        151,
        225,
        5,
        183,
        229,
        364,
        116,
        33,
        292,
        113,
        249,
        318,
        120,
        206,
        102,
        289,
        47,
        365,
        133,
        287,
        118,
        101,
        159,
        54,
        18,
        219,
        356,
        147,
        86,
        335,
        188,
        48,
        189,
        77,
        226,
        146,
        233,
        80,
        259,
        59,
        295,
        235,
        184,
        190,
        94,
        39,
        131,
        340,
        27,
        197,
        363,
        305,
        92,
        391,
        195,
        377,
        373,
        170,
        386,
        383,
        251,
        213,
        207,
        174,
        97,
        114,
        204,
        273,
        103,
        49,
        84,
        66,
        20,
        28,
        0,
        280,
        230,
        17,
        129,
        215,
        191,
        150,
        293,
        303,
        312,
        166,
        387,
        299,
        352,
        173,
        301,
        323,
        361,
        366,
        51,
        209,
        138,
        180,
        73,
        117,
        125,
        199,
        30,
        285,
        194,
        264,
        1,
        272,
        222,
        154,
        87,
        246,
        143,
        311,
        316,
        164,
        60,
        358,
        68,
        45,
        53,
        162,
        315,
        88,
        375,
        310,
        308,
        255,
        282,
        208,
        57,
        6,
        360,
        40,
        380,
        371,
        134,
        161,
        12,
        111,
        108,
        41,
        202,
        236,
        205,
        165,
        193,
        148,
        31,
        156,
        181,
        132,
        254,
        348,
        267,
        395,
        185,
        106,
        240,
        119,
        42,
        14,
        212,
        144,
        220,
        75,
        357,
        243,
        341,
        112,
        210,
        300,
        98,
        157,
        281,
        10,
        298,
        275,
        46,
        172,
        142,
        294,
        270,
        23,
        79,
        4,
        381,
        110,
        394,
        393,
        245,
        314,
        155,
        37,
        218,
        337,
        140,
        346,
        96,
        253,
        263,
        232,
        262,
        399,
        355,
        291,
        302,
        82,
        32,
        221,
        239,
        122,
        11,
        7,
        350,
        339,
        367,
        382,
        74,
        201,
        15,
        105,
        279,
        271,
        95,
        104,
        359,
        261,
        313,
        141,
        55,
        237,
        152,
        248,
        257,
        182,
        168,
        306,
        252,
        227,
        269,
        231,
        9,
        329,
        333,
        44,
        203,
        284,
        369,
        90,
        211,
        58,
        200,
        345,
        26,
        72,
        2,
        278,
        69,
        256,
        244,
        389,
        89,
        378,
        372,
        309,
        126,
        178,
        36,
        286,
        3,
        171,
        214,
        158,
        16,
        124,
        332,
        388,
        265,
        127,
        274,
        81,
        242,
        321,
        247,
        198,
        398,
        169,
        67,
        85,
        153,
        71,
        290,
        196,
        224,
        149,
        326,
        167,
        370,
        322,
        379,
        276,
        336,
        8,
        241,
        123,
        107,
        353,
        296,
        317,
        109,
        24,
        135,
        52,
        34,
        283,
        145,
        396,
        234,
        258,
        320,
        179,
        65,
        344,
        351,
        368,
        137,
        268,
        334,
        29,
        338,
        139,
        176,
        22,
        324,
        347,
        121,
        19,
        328
    ],
    "Global Optimum": 0,
    "Algorithm": "Genetic algorithm",
    "Parameters": {
        "population": 30,
        "offspring": 30,
        "mutation probability": 0.0025,
        "crossover probability": 0.9
    },
    "Fitness": 378240,
    "Solution": [
        91,
        228,
        331,
        288,
        392,
        21,
        362,
        83,
        115,
        216,
        163,
        349,
        330,
        223,
        56,
        93,
        43,
        192,
        260,
        76,
        390,
        70,
        160,
        38,
        100,
        25,
        78,
        277,
        187,
        64,
        307,
        50,
        13,
        304,
        385,
        343,
        35,
        175,
        130,
        384,
        342,
        250,
        374,
        319,
        61,
        217,
        128,
        177,
        266,
        136,
        397,
        238,
        63,
        62,
        186,
        297,
        99,
        376,
        354,
        325,
        327,
        151,
        225,
        5,
        183,
        229,
        364,
        116,
        33,
        292,
        113,
        249,
        318,
        120,
        206,
        102,
        289,
        47,
        365,
        133,
        287,
        118,
        101,
        159,
        54,
        18,
        219,
        356,
        147,
        86,
        335,
        188,
        48,
        189,
        77,
        226,
        146,
        233,
        80,
        259,
        59,
        295,
        235,
        184,
        190,
        94,
        39,
        131,
        340,
        27,
        197,
        363,
        305,
        92,
        391,
        195,
        377,
        373,
        170,
        386,
        383,
        251,
        213,
        207,
        174,
        97,
        114,
        204,
        273,
        103,
        49,
        84,
        66,
        20,
        28,
        0,
        280,
        230,
        17,
        129,
        215,
        191,
        150,
        293,
        303,
        312,
        166,
        387,
        299,
        352,
        173,
        301,
        323,
        361,
        366,
        51,
        209,
        138,
        180,
        73,
        117,
        125,
        199,
        30,
        285,
        194,
        264,
        1,
        272,
        222,
        154,
        87,
        246,
        143,
        311,
        316,
        164,
        60,
        358,
        68,
        45,
        53,
        162,
        315,
        88,
        375,
        310,
        308,
        255,
        282,
        208,
        57,
        6,
        360,
        40,
        380,
        371,
        134,
        161,
        12,
        111,
        108,
        41,
        202,
        236,
        205,
        165,
        193,
        148,
        31,
        156,
        181,
        132,
        254,
        348,
        267,
        395,
        185,
        106,
        240,
        119,
        42,
        14,
        212,
        144,
        220,
        75,
        357,
        243,
        341,
        112,
        210,
        300,
        98,
        157,
        281,
        10,
        298,
        275,
        46,
        172,
        142,
        294,
        270,
        23,
        79,
        4,
        381,
        110,
        394,
        393,
        245,
        314,
        155,
        37,
        218,
        337,
        140,
        346,
        96,
        253,
        263,
        232,
        262,
        399,
        355,
        291,
        302,
        82,
        32,
        221,
        239,
        122,
        11,
        7,
        350,
        339,
        367,
        382,
        74,
        201,
        15,
        105,
        279,
        271,
        95,
        104,
        359,
        261,
        313,
        141,
        55,
        237,
        152,
        248,
        257,
        182,
        168,
        306,
        252,
        227,
        269,
        231,
        9,
        329,
        333,
        44,
        203,
        284,
        369,
        90,
        211,
        58,
        200,
        345,
        26,
        72,
        2,
        278,
        69,
        256,
        244,
        389,
        89,
        378,
        372,
        309,
        126,
        178,
        36,
        286,
        3,
        171,
        214,
        158,
        16,
        124,
        332,
        388,
        265,
        127,
        274,
        81,
        242,
        321,
        247,
        198,
        398,
        169,
        67,
        85,
        153,
        71,
        290,
        196,
        224,
        149,
        326,
        167,
        370,
        322,
        379,
        276,
        336,
        8,
        241,
        123,
        107,
        353,
        296,
        317,
        109,
        24,
        135,
        52,
        34,
        283,
        145,
        396,
        234,
        258,
        320,
        179,
        65,
        344,
        351,
        368,
        137,
        268,
        334,
        29,
        338,
        139,
        176,
        22,
        324,
        347,
        121,
        19,
        328
    ],
    "Nb of functions evaluations": 400020,
    "Computational time in seconds": 975.74609375,
    "Stopping criterion in evaluations": 400000
}